NAME: ACTUAL_TOURS/amz0283
TYPE: TOUR
COMMENT: RouteID_1db13401-d4d5-403e-ae5d-0e594bfcdb25
DIMENSION: 120
TOUR_SECTION
29
4
44
118
47
89
115
41
92
117
32
109
76
30
13
10
97
106
66
85
19
79
102
1
34
61
3
18
82
16
103
98
67
96
42
12
53
58
65
37
107
114
91
52
119
59
112
55
49
111
81
15
77
99
69
84
24
35
101
71
120
70
90
86
57
14
88
31
26
62
50
68
54
21
8
72
93
110
87
95
43
38
33
60
45
75
2
48
78
94
73
6
108
28
113
9
116
39
23
11
104
100
5
20
7
22
27
17
40
83
25
63
80
51
36
74
46
105
64
56
-1
EOF
